Route 1: 0 76 28 17 5 54 30 59 39 38 0
Route 2: 0 53 4 98 43 19 7 36 34 63 35 0
Route 3: 0 61 66 9 18 49 6 0
Route 4: 0 47 33 88 55 82 29 0
Route 5: 0 70 3 92 41 23 67 21 0
Route 6: 0 25 94 48 73 52 8 10 45 78 24 13 32 0
Route 7: 0 96 1 16 95 85 87 0
Route 8: 0 69 75 100 14 11 97 56 81 44 0
Route 9: 0 50 62 58 15 91 83 90 42 74 80 0
Route 10: 0 77 89 31 46 86 22 20 27 64 68 0
Route 11: 0 57 2 84 79 65 12 71 93 60 40 0
Route 12: 0 72 99 51 37 26 0
